NAME          COPTPROB
OBJSENSE
  MIN
ROWS
 N  __OBJ___
 L  C10     
 L  C65     
 L  C105    
 L  C108    
 L  C120    
 L  C133    
 L  C194    
COLUMNS
    MARKER    'MARKER'                 'INTORG'
    x73       __OBJ___  19
    x73       C65       -1
    x73       C133      -1
    x322      __OBJ___  114
    x322      C105      -1
    x322      C194      -1
    x652      __OBJ___  13
    x652      C194      -1
    x970      __OBJ___  74
    x970      C10       -1
    x970      C120      -1
    x1225     __OBJ___  150
    x1225     C10       -1
    x1225     C105      -1
    x1352     __OBJ___  31
    x1352     C65       -1
    x1352     C194      -1
    x1402     __OBJ___  62
    x1402     C10       -1
    x1514     __OBJ___  8
    x1514     C108      -1
    x1514     C133      -1
    x1584     __OBJ___  65
    x1584     C108      -1
    x1584     C120      -1
    MARKER    'MARKER'                 'INTEND'
RHS
    RHS       __OBJ___  -9430
    RHS       C10       -1
    RHS       C65       -1
    RHS       C105      -1
    RHS       C108      -1
    RHS       C120      -1
    RHS       C133      -1
    RHS       C194      -1
BOUNDS
 UP BOUND     x73       1
 UP BOUND     x322      1
 UP BOUND     x652      1
 UP BOUND     x970      1
 UP BOUND     x1225     1
 UP BOUND     x1352     1
 UP BOUND     x1402     1
 UP BOUND     x1514     1
 UP BOUND     x1584     1
ENDATA
